1596942
0,31,55,39,4,18,48,22,59,28,24,29,40,5,63,10,65,25,54,33,45,42,6,66,37,20,2,41,11,60,23,62,15,58,49,27,30,21,51,32,56,17,9,13,43,61,38,50,34,36,52,67,7,35,14,57,8,16,26,44,64,1,47,3,19,46,12,53,0